;(set-option :produce-unsat-cores true )
(set-logic ALL_SUPPORTED )
(declare-sort A$ 0 )
(declare-sort B$ 0 )
(declare-sort A_a_fun$ 0 )
(declare-sort B_b_fun$ 0 )
(declare-sort A_llist_a_b_tllist_fun$ 0 )
(declare-sort A_b_tllist$ 0)
(declare-sort A_llist$ 0)
(declare-fun terminal$ (A_b_tllist$)B$)
(declare-fun tNil$ (B$ )A_b_tllist$)
(declare-fun thd$ (A_b_tllist$)A$)
(declare-fun ttl$ (A_b_tllist$)A_b_tllist$)
(declare-fun tCons$ (A$ A_b_tllist$ )A_b_tllist$)
(declare-fun lNil$ ()A_llist$)
(declare-fun lhd$ (A_llist$)A$)
(declare-fun ltl$ (A_llist$)A_llist$)
(declare-fun lCons$ (A$ A_llist$ )A_llist$)
(declare-fun b$ ()B$ )
(declare-fun xs$ ()A_llist$ )
(declare-fun tmap$ (A_a_fun$ B_b_fun$ A_b_tllist$ )A_b_tllist$ )
(declare-fun lnull$ (A_llist$ )Bool )
(declare-fun fun_app$ (A_llist_a_b_tllist_fun$ A_llist$ )A_b_tllist$ )
(declare-fun is_TNil$ (A_b_tllist$ )Bool )
(declare-fun fun_app$a (A_a_fun$ A$ )A$ )
(declare-fun iterates$ (A_a_fun$ A$ )A_llist$ )
(declare-fun tllist_of_llist$ (B$ )A_llist_a_b_tllist_fun$ )
(assert (! (not (= (thd$ (fun_app$ (tllist_of_llist$ b$ )xs$ ))(lhd$ xs$ ))):named a0 ))
(assert (! (forall ((?v0 A$ )(?v1 A_b_tllist$ ))(! (= (thd$ (tCons$ ?v0 ?v1 ))?v0 ):pattern ((tCons$ ?v0 ?v1 )))):named a1 ))
(assert (! (forall ((?v0 A_llist$ )(?v1 B$ ))(=> (lnull$ ?v0 )(= (terminal$ (fun_app$ (tllist_of_llist$ ?v1 )?v0 ))?v1 ))):named a2 ))
(assert (! (forall ((?v0 B$ ))(! (= (fun_app$ (tllist_of_llist$ ?v0 )lNil$ )(tNil$ ?v0 )):pattern ((tllist_of_llist$ ?v0 )))):named a3 ))
(assert (! (forall ((?v0 B$ )(?v1 A$ )(?v2 A_llist$ ))(! (= (fun_app$ (tllist_of_llist$ ?v0 )(lCons$ ?v1 ?v2 ))(tCons$ ?v1 (fun_app$ (tllist_of_llist$ ?v0 )?v2 ))):pattern ((fun_app$ (tllist_of_llist$ ?v0 )(lCons$ ?v1 ?v2 ))))):named a4 ))
(assert (! (forall ((?v0 A_a_fun$ )(?v1 A$ ))(= (lhd$ (iterates$ ?v0 ?v1 ))?v1 )):named a5 ))
(assert (! (forall ((?v0 A_b_tllist$ )(?v1 A_a_fun$ )(?v2 B_b_fun$ ))(=> (not (is_TNil$ ?v0 ))(= (thd$ (tmap$ ?v1 ?v2 ?v0 ))(fun_app$a ?v1 (thd$ ?v0 ))))):named a6 ))
(assert (! (forall ((?v0 B$ )(?v1 A_llist$ ))(= (not (is_TNil$ (fun_app$ (tllist_of_llist$ ?v0 )?v1 )))(not (lnull$ ?v1 )))):named a7 ))
(assert (! (forall ((?v0 B$ )(?v1 A_llist$ ))(= (is_TNil$ (fun_app$ (tllist_of_llist$ ?v0 )?v1 ))(lnull$ ?v1 ))):named a8 ))
(assert (! (forall ((?v0 A$ )(?v1 A_llist$ )(?v2 A$ )(?v3 A_llist$ ))(= (= (lCons$ ?v0 ?v1 )(lCons$ ?v2 ?v3 ))(and (= ?v0 ?v2 )(= ?v1 ?v3 )))):named a9 ))
(assert (! (forall ((?v0 B$ )(?v1 B$ ))(= (= (tNil$ ?v0 )(tNil$ ?v1 ))(= ?v0 ?v1 ))):named a10 ))
(assert (! (forall ((?v0 A$ )(?v1 A_b_tllist$ )(?v2 A$ )(?v3 A_b_tllist$ ))(= (= (tCons$ ?v0 ?v1 )(tCons$ ?v2 ?v3 ))(and (= ?v0 ?v2 )(= ?v1 ?v3 )))):named a11 ))
(check-sat )
;(get-unsat-core )
